
Gurobi 12.0.2 (win64) logging started Fri Jun  6 14:25:53 2025

Set parameter LogFile to value "C:\Ioana\_uni\honours\slp\algorithm\Main_files\results\others\prox_tubules_new\Task_006_Sample001_irr_gurobi.log"
Gurobi Optimizer version 12.0.2 build v12.0.2rc0 (win64 - Windows 11.0 (26100.2))

CPU model: Intel(R) Core(TM) Ultra 5 125H, instruction set [SSE2|AVX|AVX2]
Thread count: 14 physical cores, 18 logical processors, using up to 18 threads

Non-default parameters:
TimeLimit  2200

Optimize a model with 47658 rows, 34797 columns and 147844 nonzeros
Model fingerprint: 0xe0ee4e8e
Variable types: 17403 continuous, 17394 integer (17394 binary)
Coefficient statistics:
  Matrix range     [1e-04, 8e+04]
  Objective range  [1e-04, 1e+01]
  Bounds range     [1e+00, 1e+03]
  RHS range        [1e+00, 1e+00]
Presolve removed 31250 rows and 21830 columns
Presolve time: 0.31s
Presolved: 16408 rows, 12967 columns, 54601 nonzeros
Variable types: 6421 continuous, 6546 integer (6546 binary)

Root relaxation: objective 5.345072e-03, 4681 iterations, 0.53 seconds (0.96 work units)

    Nodes    |    Current Node    |     Objective Bounds      |     Work
 Expl Unexpl |  Obj  Depth IntInf | Incumbent    BestBd   Gap | It/Node Time

     0     0    0.00535    0   68          -    0.00535      -     -    0s
H    0     0                      12.2192841    0.00535   100%     -    0s
H    0     0                       2.7485948    0.00535   100%     -    1s
     0     0    0.09102    0   66    2.74859    0.09102  96.7%     -    1s
     0     0    0.09116    0   72    2.74859    0.09116  96.7%     -    1s
     0     0    0.87719    0   75    2.74859    0.87719  68.1%     -    2s
H    0     0                       2.6966468    0.87719  67.5%     -    2s
     0     0    0.87719    0   73    2.69665    0.87719  67.5%     -    2s
H    0     0                       2.6766067    0.87719  67.2%     -    2s
     0     0    0.87719    0   73    2.67661    0.87719  67.2%     -    2s
H    0     0                       1.9955093    0.87719  56.0%     -    2s
     0     0    0.87719    0   50    1.99551    0.87719  56.0%     -    2s
     0     0    0.87719    0   40    1.99551    0.87719  56.0%     -    2s
H    0     0                       1.9435613    0.88013  54.7%     -    3s
H    0     0                       1.9235212    0.88013  54.2%     -    3s
     0     0    0.88022    0   58    1.92352    0.88022  54.2%     -    3s
     0     0    0.88047    0   44    1.92352    0.88047  54.2%     -    3s
     0     0    0.88254    0   74    1.92352    0.88254  54.1%     -    3s
     0     0    0.88254    0   89    1.92352    0.88254  54.1%     -    3s
H    0     0                       1.9235212    0.88254  54.1%     -    3s
     0     0    0.88254    0   39    1.92352    0.88254  54.1%     -    4s
     0     0    0.88254    0   45    1.92352    0.88254  54.1%     -    4s
     0     0    0.88254    0   53    1.92352    0.88254  54.1%     -    4s
     0     0    0.88254    0   45    1.92352    0.88254  54.1%     -    4s
     0     0    0.88254    0   52    1.92352    0.88254  54.1%     -    4s
     0     0    0.88254    0   53    1.92352    0.88254  54.1%     -    4s
     0     0    0.88254    0   49    1.92352    0.88254  54.1%     -    4s
     0     0    0.88254    0   46    1.92352    0.88254  54.1%     -    4s
     0     0    0.88254    0   46    1.92352    0.88254  54.1%     -    4s
     0     0    0.88254    0   58    1.92352    0.88254  54.1%     -    4s
     0     0    0.88254    0   53    1.92352    0.88254  54.1%     -    5s
     0     0    0.88254    0   60    1.92352    0.88254  54.1%     -    5s
     0     0    0.88254    0   57    1.92352    0.88254  54.1%     -    5s
     0     0    0.88254    0   49    1.92352    0.88254  54.1%     -    5s
     0     0    0.88254    0   49    1.92352    0.88254  54.1%     -    5s
     0     0    0.88254    0   59    1.92352    0.88254  54.1%     -    5s
     0     0    0.88254    0   59    1.92352    0.88254  54.1%     -    5s
     0     2    0.88254    0   59    1.92352    0.88254  54.1%     -    5s
H  911   115                       1.9235212    1.60419  16.6%  30.1    7s

Cutting planes:
  Cover: 18
  Implied bound: 6
  MIR: 1
  StrongCG: 1
  Flow cover: 103
  Flow path: 3
  Inf proof: 35
  Network: 24

Explored 1458 nodes (52352 simplex iterations) in 8.90 seconds (8.61 work units)
Thread count was 18 (of 18 available processors)

Solution count 8: 1.92352 1.92352 1.94356 ... 12.2193

Optimal solution found (tolerance 1.00e-04)
Best objective 1.923521170396e+00, best bound 1.923521170201e+00, gap 0.0000%
